nb_case = 9;
nb_op = 4;

A = [_,1,_,_,_,_,_,_,_,7];
B = [_,3,_,_,_,_,_,_,_,_];
C = [_,_,_,9,_,_,6,_,_,_];
D = [_,_,_,_,_,_,8,_,_,_];

opA = ["+","+","*","+"];
opB = ["+","*","-","+"];
opC = ["-","*","+","+"];
opD = ["+","*","*","*"];

opAB = "-";
opBC = "+";
opCD = "+";
opDA = "+";

AB = 2;
BC = 2;
CD = 4;
DA = 3;